SPARKNaCl/why3-z3/sparknacl-sign.adb_470_17_range_check2_1.smt2
;; produced by z3_gnatprove.drv ;;
(set-info :smt-lib-version 2.5)
(set-info :source |VC generated by SPARK 2014|)
(set-info :category industrial)
(set-info :status unknown)
;;; generated by SMT-LIB2 driver
;;; SMT-LIB2 driver: bit-vectors, common part
;;; SMT-LIB2: integer arithmetic
(define-fun __cdiv ((x Int) (y Int)) Int (ite (>= x 0) (div x y) (- (div (- x) y))))
(define-fun __cmod ((x Int) (y Int)) Int (ite (>= x 0) (mod x y) (- (mod (- x) y))))
(declare-datatypes ()
  ((int__ref (int__refqtmk (int__content Int)))))

(declare-sort i64 0)

;; "i64'int"
(declare-fun i64qtint (i64) Int)

;; "i64'axiom"
(assert
  (forall ((i i64))
    (and
      (<= (- 9223372036854775808) (i64qtint i))
      (<= (i64qtint i) 9223372036854775807))))

;; "in_range"
(define-fun in_range ((x Int)) Bool
  (and (<= (- 9223372036854775808) x) (<= x 9223372036854775807)))

;; "to_rep"
(define-fun to_rep ((x i64)) Int
  (i64qtint x))

;; "of_rep"
(declare-fun of_rep (Int) i64)

;; "inversion_axiom"
(assert
  (forall ((x i64)) (! (= (of_rep (to_rep x)) x) :pattern ((to_rep x)) )))

;; "range_axiom"
(assert (forall ((x i64)) (! (in_range (to_rep x)) :pattern ((to_rep x)) )))

;; "coerce_axiom"
(assert
  (forall ((x Int))
    (! (=> (in_range x) (= (to_rep (of_rep x)) x)) :pattern ((to_rep
                                                               (of_rep x))) )))

(declare-sort map1 0)

;; "has_bounds"
(declare-fun has_bounds (map1
  Int
  Int) Bool)

;; "get"
(declare-fun get (map1
  Int) i64)

(declare-const x map1)

(declare-sort l16_limb 0)

;; "l16_limb'int"
(declare-fun l16_limbqtint (l16_limb) Int)

;; "l16_limb'axiom"
(assert
  (forall ((i l16_limb))
    (and (<= 0 (l16_limbqtint i)) (<= (l16_limbqtint i) 3984))))

;; "in_range"
(define-fun in_range1 ((x1 Int)) Bool
  (and (<= 0 x1) (<= x1 3984)))

;; "to_rep"
(define-fun to_rep1 ((x1 l16_limb)) Int
  (l16_limbqtint x1))

;; "of_rep"
(declare-fun of_rep1 (Int) l16_limb)

;; "inversion_axiom"
(assert
  (forall ((x1 l16_limb))
    (! (= (of_rep1 (to_rep1 x1)) x1) :pattern ((to_rep1 x1)) )))

;; "range_axiom"
(assert
  (forall ((x1 l16_limb))
    (! (in_range1 (to_rep1 x1)) :pattern ((to_rep1 x1)) )))

;; "coerce_axiom"
(assert
  (forall ((x1 Int))
    (! (=> (in_range1 x1) (= (to_rep1 (of_rep1 x1)) x1)) :pattern ((to_rep1
                                                                    (of_rep1
                                                                    x1))) )))

(declare-sort map2 0)

;; "has_bounds"
(declare-fun has_bounds1 (map2
  Int
  Int) Bool)

;; "get"
(declare-fun get1 (map2
  Int) l16_limb)

(declare-const l16 map2)

(declare-sort xl_limb 0)

;; "xl_limb'int"
(declare-fun xl_limbqtint (xl_limb) Int)

;; "xl_limb'axiom"
(assert
  (forall ((i xl_limb))
    (and
      (<= (- 33299444949360) (xl_limbqtint i))
      (<= (xl_limbqtint i) 33299444949360))))

;; "in_range"
(define-fun in_range2 ((x1 Int)) Bool
  (and (<= (- 33299444949360) x1) (<= x1 33299444949360)))

;; "to_rep"
(define-fun to_rep2 ((x1 xl_limb)) Int
  (xl_limbqtint x1))

;; "of_rep"
(declare-fun of_rep2 (Int) xl_limb)

;; "inversion_axiom"
(assert
  (forall ((x1 xl_limb))
    (! (= (of_rep2 (to_rep2 x1)) x1) :pattern ((to_rep2 x1)) )))

;; "range_axiom"
(assert
  (forall ((x1 xl_limb))
    (! (in_range2 (to_rep2 x1)) :pattern ((to_rep2 x1)) )))

;; "coerce_axiom"
(assert
  (forall ((x1 Int))
    (! (=> (in_range2 x1) (= (to_rep2 (of_rep2 x1)) x1)) :pattern ((to_rep2
                                                                    (of_rep2
                                                                    x1))) )))

(declare-sort map3 0)

(declare-datatypes ()
  ((map__ref (map__refqtmk (map__content map3)))))

;; "has_bounds"
(declare-fun has_bounds2 (map3
  Int
  Int) Bool)

;; "get"
(declare-fun get2 (map3
  Int) xl_limb)

;; "power"
(declare-fun power (Int
  Int) Int)

;; "Power_0"
(assert (forall ((x1 Int)) (= (power x1 0) 1)))

;; "Power_s"
(assert
  (forall ((x1 Int) (n Int))
    (=> (<= 0 n) (= (power x1 (+ n 1)) (* x1 (power x1 n))))))

;; "Power_s_alt"
(assert
  (forall ((x1 Int) (n Int))
    (=> (< 0 n) (= (power x1 n) (* x1 (power x1 (- n 1)))))))

;; "Power_1"
(assert (forall ((x1 Int)) (= (power x1 1) x1)))

;; "Power_sum"
(assert
  (forall ((x1 Int) (n Int) (m Int))
    (=>
      (<= 0 n)
      (=> (<= 0 m) (= (power x1 (+ n m)) (* (power x1 n) (power x1 m)))))))

;; "Power_mult"
(assert
  (forall ((x1 Int) (n Int) (m Int))
    (=> (<= 0 n) (=> (<= 0 m) (= (power x1 (* n m)) (power (power x1 n) m))))))

;; "Power_comm1"
(assert
  (forall ((x1 Int) (y Int))
    (=>
      (= (* x1 y) (* y x1))
      (forall ((n Int))
        (=> (<= 0 n) (= (* (power x1 n) y) (* y (power x1 n))))))))

;; "Power_comm2"
(assert
  (forall ((x1 Int) (y Int))
    (=>
      (= (* x1 y) (* y x1))
      (forall ((n Int))
        (=> (<= 0 n) (= (power (* x1 y) n) (* (power x1 n) (power y n))))))))

;; "Power_non_neg"
(assert
  (forall ((x1 Int) (y Int))
    (=> (and (<= 0 x1) (<= 0 y)) (<= 0 (power x1 y)))))

;; "Power_pos"
(assert
  (forall ((x1 Int) (y Int)) (=> (and (< 0 x1) (<= 0 y)) (< 0 (power x1 y)))))

;; "Power_monotonic"
(assert
  (forall ((x1 Int) (n Int) (m Int))
    (=>
      (and (< 0 x1) (and (<= 0 n) (<= n m)))
      (<= (power x1 n) (power x1 m)))))

;; "ada___sparknacl__sign__l16__aggregate_def"
(declare-fun ada___sparknacl__sign__l16__aggregate_def (Int
  Int
  Int
  Int
  Int
  Int
  Int
  Int
  Int
  Int
  Int
  Int
  Int
  Int
  Int
  Int
  Int
  Int
  Int
  Int
  Int
  Int
  Int
  Int
  Int
  Int
  Int
  Int
  Int
  Int
  Int
  Int) map2)

;; "in_range"
(define-fun in_range3 ((x1 Int)) Bool
  (and (<= (- 33554432) x1) (<= x1 16384)))

;; "in_range"
(define-fun in_range4 ((x1 Int)) Bool
  (and (<= (- 133680857088) x1) (<= x1 8356196976)))

;; "in_range"
(define-fun in_range5 ((x1 Int)) Bool
  (and (<= (- 128) x1) (<= x1 127)))

;; "in_range"
(define-fun in_range6 ((x1 Int)) Bool
  (and (<= 0 x1) (<= x1 2089216)))

;; "l16__def_axiom"
(assert
  (= l16 (let ((temp___410 (ada___sparknacl__sign__l16__aggregate_def
                             3792
                             3376
                             3920
                             1472
                             416
                             1584
                             288
                             1408
                             3424
                             2496
                             3952
                             2592
                             3552
                             3984
                             3552
                             320
                             0
                             0
                             0
                             0
                             0
                             0
                             0
                             0
                             0
                             0
                             0
                             0
                             0
                             0
                             0
                             256)))
           (let ((temp___411 temp___410)) temp___411))))

(declare-const rliteral l16_limb)

;; "rliteral_axiom"
(assert (= (l16_limbqtint rliteral) 3792))

(declare-const rliteral1 l16_limb)

;; "rliteral_axiom"
(assert (= (l16_limbqtint rliteral1) 3376))

(declare-const rliteral2 l16_limb)

;; "rliteral_axiom"
(assert (= (l16_limbqtint rliteral2) 3920))

(declare-const rliteral3 l16_limb)

;; "rliteral_axiom"
(assert (= (l16_limbqtint rliteral3) 1472))

(declare-const rliteral4 l16_limb)

;; "rliteral_axiom"
(assert (= (l16_limbqtint rliteral4) 416))

(declare-const rliteral5 l16_limb)

;; "rliteral_axiom"
(assert (= (l16_limbqtint rliteral5) 1584))

(declare-const rliteral6 l16_limb)

;; "rliteral_axiom"
(assert (= (l16_limbqtint rliteral6) 288))

(declare-const rliteral7 l16_limb)

;; "rliteral_axiom"
(assert (= (l16_limbqtint rliteral7) 1408))

(declare-const rliteral8 l16_limb)

;; "rliteral_axiom"
(assert (= (l16_limbqtint rliteral8) 3424))

(declare-const rliteral9 l16_limb)

;; "rliteral_axiom"
(assert (= (l16_limbqtint rliteral9) 2496))

(declare-const rliteral10 l16_limb)

;; "rliteral_axiom"
(assert (= (l16_limbqtint rliteral10) 3952))

(declare-const rliteral11 l16_limb)

;; "rliteral_axiom"
(assert (= (l16_limbqtint rliteral11) 2592))

(declare-const rliteral12 l16_limb)

;; "rliteral_axiom"
(assert (= (l16_limbqtint rliteral12) 3552))

(declare-const rliteral13 l16_limb)

;; "rliteral_axiom"
(assert (= (l16_limbqtint rliteral13) 3984))

(declare-const rliteral14 l16_limb)

;; "rliteral_axiom"
(assert (= (l16_limbqtint rliteral14) 320))

(declare-const rliteral15 l16_limb)

;; "rliteral_axiom"
(assert (= (l16_limbqtint rliteral15) 0))

(declare-const rliteral16 l16_limb)

;; "rliteral_axiom"
(assert (= (l16_limbqtint rliteral16) 256))

;; "def_axiom"
(assert
  (forall ((temp___375 Int) (temp___376 Int) (temp___377 Int) (temp___378 Int) (temp___379 Int) (temp___380 Int) (temp___381 Int) (temp___382 Int) (temp___383 Int) (temp___384 Int) (temp___385 Int) (temp___386 Int) (temp___387 Int) (temp___388 Int) (temp___389 Int) (temp___390 Int) (temp___391 Int) (temp___392 Int) (temp___393 Int) (temp___394 Int) (temp___395 Int) (temp___396 Int) (temp___397 Int) (temp___398 Int) (temp___399 Int) (temp___400 Int) (temp___401 Int) (temp___402 Int) (temp___403 Int) (temp___404 Int) (temp___405 Int) (temp___406 Int))
    (let ((temp___407 (ada___sparknacl__sign__l16__aggregate_def
                        temp___375
                        temp___376
                        temp___377
                        temp___378
                        temp___379
                        temp___380
                        temp___381
                        temp___382
                        temp___383
                        temp___384
                        temp___385
                        temp___386
                        temp___387
                        temp___388
                        temp___389
                        temp___390
                        temp___391
                        temp___392
                        temp___393
                        temp___394
                        temp___395
                        temp___396
                        temp___397
                        temp___398
                        temp___399
                        temp___400
                        temp___401
                        temp___402
                        temp___403
                        temp___404
                        temp___405
                        temp___406)))
      (and
        (and
          (and
            (= (get1 temp___407 0) rliteral)
            (= (get1 temp___407 1) rliteral1))
          (and
            (and
              (and
                (and
                  (and
                    (= (get1 temp___407 2) rliteral2)
                    (= (get1 temp___407 3) rliteral3))
                  (and
                    (= (get1 temp___407 4) rliteral4)
                    (= (get1 temp___407 5) rliteral5)))
                (and
                  (and
                    (= (get1 temp___407 6) rliteral6)
                    (= (get1 temp___407 7) rliteral7))
                  (and
                    (= (get1 temp___407 8) rliteral8)
                    (= (get1 temp___407 9) rliteral9))))
              (and
                (and
                  (and
                    (= (get1 temp___407 10) rliteral10)
                    (= (get1 temp___407 11) rliteral11))
                  (and
                    (= (get1 temp___407 12) rliteral12)
                    (= (get1 temp___407 13) rliteral13)))
                (and
                  (and
                    (= (get1 temp___407 14) rliteral12)
                    (= (get1 temp___407 15) rliteral14))
                  (= (get1 temp___407 16) rliteral15))))
            (and
              (and
                (and
                  (and
                    (= (get1 temp___407 17) rliteral15)
                    (= (get1 temp___407 18) rliteral15))
                  (and
                    (= (get1 temp___407 19) rliteral15)
                    (= (get1 temp___407 20) rliteral15)))
                (and
                  (and
                    (= (get1 temp___407 21) rliteral15)
                    (= (get1 temp___407 22) rliteral15))
                  (and
                    (= (get1 temp___407 23) rliteral15)
                    (= (get1 temp___407 24) rliteral15))))
              (and
                (and
                  (and
                    (= (get1 temp___407 25) rliteral15)
                    (= (get1 temp___407 26) rliteral15))
                  (and
                    (= (get1 temp___407 27) rliteral15)
                    (= (get1 temp___407 28) rliteral15)))
                (and
                  (and
                    (= (get1 temp___407 29) rliteral15)
                    (= (get1 temp___407 30) rliteral15))
                  (= (get1 temp___407 31) rliteral16))))))
        (=>
          (and
            (and (and (<= 0 0) (<= 0 31)) (and (<= 0 1) (<= 1 31)))
            (and
              (and
                (and
                  (and
                    (and (and (<= 0 2) (<= 2 31)) (and (<= 0 3) (<= 3 31)))
                    (and (and (<= 0 4) (<= 4 31)) (and (<= 0 5) (<= 5 31))))
                  (and
                    (and (and (<= 0 6) (<= 6 31)) (and (<= 0 7) (<= 7 31)))
                    (and (and (<= 0 8) (<= 8 31)) (and (<= 0 9) (<= 9 31)))))
                (and
                  (and
                    (and
                      (and (<= 0 10) (<= 10 31))
                      (and (<= 0 11) (<= 11 31)))
                    (and
                      (and (<= 0 12) (<= 12 31))
                      (and (<= 0 13) (<= 13 31))))
                  (and
                    (and
                      (and (<= 0 14) (<= 14 31))
                      (and (<= 0 15) (<= 15 31)))
                    (and (<= 0 16) (<= 16 31)))))
              (and
                (and
                  (and
                    (and
                      (and (<= 0 17) (<= 17 31))
                      (and (<= 0 18) (<= 18 31)))
                    (and
                      (and (<= 0 19) (<= 19 31))
                      (and (<= 0 20) (<= 20 31))))
                  (and
                    (and
                      (and (<= 0 21) (<= 21 31))
                      (and (<= 0 22) (<= 22 31)))
                    (and
                      (and (<= 0 23) (<= 23 31))
                      (and (<= 0 24) (<= 24 31)))))
                (and
                  (and
                    (and
                      (and (<= 0 25) (<= 25 31))
                      (and (<= 0 26) (<= 26 31)))
                    (and
                      (and (<= 0 27) (<= 27 31))
                      (and (<= 0 28) (<= 28 31))))
                  (and
                    (and
                      (and (<= 0 29) (<= 29 31))
                      (and (<= 0 30) (<= 30 31)))
                    (and (<= 0 31) (<= 31 31)))))))
          (has_bounds1 temp___407 0 31))))))

(declare-const xl map3)

(declare-const carry Int)

(declare-const adjustment Int)

(declare-const xli Int)

;; "xli'unused"
(define-fun xliqtunused () int__ref
  (int__refqtmk xli))

;; "adjustment'unused"
(define-fun adjustmentqtunused () int__ref
  (int__refqtmk adjustment))

;; "carry'unused"
(define-fun carryqtunused () int__ref
  (int__refqtmk carry))

;; "xl'unused"
(define-fun xlqtunused () map__ref
  (map__refqtmk xl))

;; "Assume"
(assert (has_bounds x 0 63))

;; "Assume"
(assert (has_bounds1 l16 0 31))

(declare-const temp___2617 map2)

;; "H"
(assert (= (get1 temp___2617 0) rliteral))

;; "H"
(assert (= (get1 temp___2617 1) rliteral1))

;; "H"
(assert (= (get1 temp___2617 2) rliteral2))

;; "H"
(assert (= (get1 temp___2617 3) rliteral3))

;; "H"
(assert (= (get1 temp___2617 4) rliteral4))

;; "H"
(assert (= (get1 temp___2617 5) rliteral5))

;; "H"
(assert (= (get1 temp___2617 6) rliteral6))

;; "H"
(assert (= (get1 temp___2617 7) rliteral7))

;; "H"
(assert (= (get1 temp___2617 8) rliteral8))

;; "H"
(assert (= (get1 temp___2617 9) rliteral9))

;; "H"
(assert (= (get1 temp___2617 10) rliteral10))

;; "H"
(assert (= (get1 temp___2617 11) rliteral11))

;; "H"
(assert (= (get1 temp___2617 12) rliteral12))

;; "H"
(assert (= (get1 temp___2617 13) rliteral13))

;; "H"
(assert (= (get1 temp___2617 14) rliteral12))

;; "H"
(assert (= (get1 temp___2617 15) rliteral14))

;; "H"
(assert (= (get1 temp___2617 16) rliteral15))

;; "H"
(assert (= (get1 temp___2617 17) rliteral15))

;; "H"
(assert (= (get1 temp___2617 18) rliteral15))

;; "H"
(assert (= (get1 temp___2617 19) rliteral15))

;; "H"
(assert (= (get1 temp___2617 20) rliteral15))

;; "H"
(assert (= (get1 temp___2617 21) rliteral15))

;; "H"
(assert (= (get1 temp___2617 22) rliteral15))

;; "H"
(assert (= (get1 temp___2617 23) rliteral15))

;; "H"
(assert (= (get1 temp___2617 24) rliteral15))

;; "H"
(assert (= (get1 temp___2617 25) rliteral15))

;; "H"
(assert (= (get1 temp___2617 26) rliteral15))

;; "H"
(assert (= (get1 temp___2617 27) rliteral15))

;; "H"
(assert (= (get1 temp___2617 28) rliteral15))

;; "H"
(assert (= (get1 temp___2617 29) rliteral15))

;; "H"
(assert (= (get1 temp___2617 30) rliteral15))

;; "H"
(assert (= (get1 temp___2617 31) rliteral16))

;; "H"
(assert (has_bounds1 temp___2617 0 31))

;; "H"
(assert
  (= temp___2617 (ada___sparknacl__sign__l16__aggregate_def
                   3792
                   3376
                   3920
                   1472
                   416
                   1584
                   288
                   1408
                   3424
                   2496
                   3952
                   2592
                   3552
                   3984
                   3552
                   320
                   0
                   0
                   0
                   0
                   0
                   0
                   0
                   0
                   0
                   0
                   0
                   0
                   0
                   0
                   0
                   256)))

;; "ada___sparknacl__sign__l16__aggregate_def'result'unused"
(define-fun ada___sparknacl__sign__l16__aggregate_defqtresultqtunused 
  () map2
  temp___2617)

;; "Assume"
(assert (= temp___2617 l16))

;; "Assume"
(assert (has_bounds x 0 63))

;; "Assume"
(assert (has_bounds2 xl 0 63))

;; "Assume"
(assert
  (and
    (and
      (and
        (and
          (forall ((k Int))
            (=>
              (and (<= 0 k) (<= k 30))
              (and
                (= (to_rep2 (get2 xl k)) (to_rep (get x k)))
                (let ((temp___2578 (to_rep2 (get2 xl k))))
                  (and (<= 0 temp___2578) (<= temp___2578 2081055))))))
          (forall ((k Int))
            (=> (and (<= 31 k) (<= k 50)) (in_range5 (to_rep2 (get2 xl k))))))
        (in_range6 (to_rep2 (get2 xl 51))))
      (forall ((k Int))
        (=>
          (and (<= 52 k) (<= k 62))
          (and
            (= (to_rep2 (get2 xl k)) (to_rep (get x k)))
            (let ((temp___2582 (to_rep2 (get2 xl k))))
              (and (<= 0 temp___2582) (<= temp___2582 2081055)))))))
    (= (to_rep2 (get2 xl 63)) 0)))

;; "Assume"
(assert true)

;; "Assume"
(assert (in_range3 carry))

;; "Assume"
(assert true)

;; "Assume"
(assert (in_range4 adjustment))

;; "Assume"
(assert true)

;; "Assume"
(assert (in_range2 xli))

(declare-const i Int)

;; "i'unused"
(define-fun iqtunused () int__ref
  (int__refqtmk i))

;; "H"
(assert (= i 62))

;; "int__content'result'unused"
(define-fun int__contentqtresultqtunused () Int
  i)

;; "o"
(define-fun o () Bool
  (ite (<= i 62) true false))

;; "infix <='result'unused"
(define-fun infix_lseqqtresultqtunused () Bool
  o)

;; "int__content'result'unused"
(define-fun int__contentqtresultqtunused1 () Int
  i)

;; "o"
(define-fun o1 () Bool
  (ite (<= 32 i) true false))

;; "infix <='result'unused"
(define-fun infix_lseqqtresultqtunused1 () Bool
  o1)

;; "o"
(define-fun o2 () Bool
  (and o1 o))

;; "andb'result'unused"
(define-fun andbqtresultqtunused () Bool
  o2)

;; "H"
(assert (= o2 true))

;; "temp___loop_entry_2540'unused"
(define-fun temp___loop_entry_2540qtunused () map3
  xl)

;; "map__content'result'unused"
(define-fun map__contentqtresultqtunused () map3
  xl)

;; "temp___loop_entry_2535'unused"
(define-fun temp___loop_entry_2535qtunused () map3
  xl)

;; "map__content'result'unused"
(define-fun map__contentqtresultqtunused1 () map3
  xl)

;; "temp___loop_entry_2556'unused"
(define-fun temp___loop_entry_2556qtunused () map3
  xl)

;; "map__content'result'unused"
(define-fun map__contentqtresultqtunused2 () map3
  xl)

;; "temp___loop_entry_2538'unused"
(define-fun temp___loop_entry_2538qtunused () map3
  xl)

;; "map__content'result'unused"
(define-fun map__contentqtresultqtunused3 () map3
  xl)

;; "temp___loop_entry_2523'unused"
(define-fun temp___loop_entry_2523qtunused () Int
  carry)

;; "int__content'result'unused"
(define-fun int__contentqtresultqtunused2 () Int
  carry)

;; "temp___loop_entry_2522'unused"
(define-fun temp___loop_entry_2522qtunused () Int
  xli)

;; "int__content'result'unused"
(define-fun int__contentqtresultqtunused3 () Int
  xli)

;; "temp___loop_entry_2520'unused"
(define-fun temp___loop_entry_2520qtunused () map3
  xl)

;; "map__content'result'unused"
(define-fun map__contentqtresultqtunused4 () map3
  xl)

;; "temp___loop_entry_2518'unused"
(define-fun temp___loop_entry_2518qtunused () Int
  adjustment)

;; "int__content'result'unused"
(define-fun int__contentqtresultqtunused4 () Int
  adjustment)

(declare-const carry1 Int)

;; "carry'unused"
(define-fun carryqtunused1 () int__ref
  (int__refqtmk carry1))

;; "H"
(assert (= carry1 0))

;; "int__content'result'unused"
(define-fun int__contentqtresultqtunused5 () Int
  i)

;; "map__content'result'unused"
(define-fun map__contentqtresultqtunused5 () map3
  xl)

;; "o"
(define-fun o3 () xl_limb
  (get2 xl i))

;; "get'result'unused"
(define-fun getqtresultqtunused () xl_limb
  o3)

(declare-const o4 Int)

;; "Ensures"
(assert (= (to_rep2 o3) o4))

;; "to_rep'result'unused"
(define-fun to_repqtresultqtunused () Int
  o4)

(declare-const xli1 Int)

;; "xli'unused"
(define-fun xliqtunused1 () int__ref
  (int__refqtmk xli1))

;; "H"
(assert (= xli1 o4))

;; "H"
(assert (<= (- i 32) (- i 17)))

;; Goal "def'vc"
;; File "sparknacl-sign.adb", line 303, characters 0-0
(assert
  (not (<= (- i 17) 2147483647)))

(check-sat)
